p wcnf 542 1568
w -2 0.367879 0
w 2 2.718282 0
w -3 0.367879 0
w 3 2.718282 0
w -4 0.367879 0
w 4 2.718282 0
w -5 0.367879 0
w 5 2.718282 0
w -6 0.367879 0
w 6 2.718282 0
w -7 0.367879 0
w 7 2.718282 0
w -8 0.367879 0
w 8 2.718282 0
w -10 0.367879 0
w 10 2.718282 0
w -11 0.367879 0
w 11 2.718282 0
w -12 0.367879 0
w 12 2.718282 0
w -13 0.367879 0
w 13 2.718282 0
w -15 0.367879 0
w 15 2.718282 0
w -16 0.367879 0
w 16 2.718282 0
w -17 0.367879 0
w 17 2.718282 0
w -19 0.367879 0
w 19 2.718282 0
w -20 0.367879 0
w 20 2.718282 0
w -21 0.367879 0
w 21 2.718282 0
w -22 0.367879 0
w 22 2.718282 0
w -23 0.367879 0
w 23 2.718282 0
w -24 0.367879 0
w 24 2.718282 0
w -25 0.367879 0
w 25 2.718282 0
w -26 0.367879 0
w 26 2.718282 0
w -27 0.367879 0
w 27 2.718282 0
w -29 0.367879 0
w 29 2.718282 0
w -30 0.367879 0
w 30 2.718282 0
w -31 0.367879 0
w 31 2.718282 0
w -32 0.367879 0
w 32 2.718282 0
w -33 0.367879 0
w 33 2.718282 0
w -34 0.367879 0
w 34 2.718282 0
w -35 0.367879 0
w 35 2.718282 0
w -37 0.367879 0
w 37 2.718282 0
w -38 0.367879 0
w 38 2.718282 0
w -39 0.367879 0
w 39 2.718282 0
w -40 0.367879 0
w 40 2.718282 0
w -41 0.367879 0
w 41 2.718282 0
w -42 0.367879 0
w 42 2.718282 0
w -44 0.367879 0
w 44 2.718282 0
w -45 0.367879 0
w 45 2.718282 0
w -47 0.367879 0
w 47 2.718282 0
w -48 0.367879 0
w 48 2.718282 0
w -49 0.367879 0
w 49 2.718282 0
w -50 0.367879 0
w 50 2.718282 0
w -52 0.367879 0
w 52 2.718282 0
w -53 0.367879 0
w 53 2.718282 0
w -54 0.367879 0
w 54 2.718282 0
w -55 0.367879 0
w 55 2.718282 0
w -56 0.367879 0
w 56 2.718282 0
w -57 0.367879 0
w 57 2.718282 0
w -58 0.367879 0
w 58 2.718282 0
w -59 0.367879 0
w 59 2.718282 0
w -61 0.367879 0
w 61 2.718282 0
w -62 0.367879 0
w 62 2.718282 0
w -64 0.367879 0
w 64 2.718282 0
w -65 0.367879 0
w 65 2.718282 0
w -66 0.367879 0
w 66 2.718282 0
w -67 0.367879 0
w 67 2.718282 0
w -68 0.367879 0
w 68 2.718282 0
w -70 0.367879 0
w 70 2.718282 0
w -71 0.367879 0
w 71 2.718282 0
w -72 0.367879 0
w 72 2.718282 0
w -73 0.367879 0
w 73 2.718282 0
w -75 0.367879 0
w 75 2.718282 0
w -76 0.367879 0
w 76 2.718282 0
w -77 0.367879 0
w 77 2.718282 0
w -78 0.367879 0
w 78 2.718282 0
w -79 0.367879 0
w 79 2.718282 0
w -80 0.367879 0
w 80 2.718282 0
w -82 0.367879 0
w 82 2.718282 0
w -83 0.367879 0
w 83 2.718282 0
w -84 0.367879 0
w 84 2.718282 0
w -85 0.367879 0
w 85 2.718282 0
w -86 0.367879 0
w 86 2.718282 0
w -88 0.367879 0
w 88 2.718282 0
w -89 0.367879 0
w 89 2.718282 0
w -92 0.367879 0
w 92 2.718282 0
w -93 0.367879 0
w 93 2.718282 0
w -94 0.367879 0
w 94 2.718282 0
w -95 0.367879 0
w 95 2.718282 0
w -96 0.367879 0
w 96 2.718282 0
w -97 0.367879 0
w 97 2.718282 0
w -98 0.367879 0
w 98 2.718282 0
w -99 0.367879 0
w 99 2.718282 0
w -100 0.367879 0
w 100 2.718282 0
w -101 0.367879 0
w 101 2.718282 0
w -102 0.367879 0
w 102 2.718282 0
w -104 0.367879 0
w 104 2.718282 0
w -105 0.367879 0
w 105 2.718282 0
w -106 0.367879 0
w 106 2.718282 0
w -107 0.367879 0
w 107 2.718282 0
w -108 0.367879 0
w 108 2.718282 0
w -109 0.367879 0
w 109 2.718282 0
w -110 0.367879 0
w 110 2.718282 0
w -112 0.367879 0
w 112 2.718282 0
w -113 0.367879 0
w 113 2.718282 0
w -115 0.367879 0
w 115 2.718282 0
w -116 0.367879 0
w 116 2.718282 0
w -117 0.367879 0
w 117 2.718282 0
w -118 0.367879 0
w 118 2.718282 0
w -119 0.367879 0
w 119 2.718282 0
w -121 0.367879 0
w 121 2.718282 0
w -122 0.367879 0
w 122 2.718282 0
w -123 0.367879 0
w 123 2.718282 0
w -124 0.367879 0
w 124 2.718282 0
w -125 0.367879 0
w 125 2.718282 0
w -127 0.367879 0
w 127 2.718282 0
w -128 0.367879 0
w 128 2.718282 0
w -129 0.367879 0
w 129 2.718282 0
w -130 0.367879 0
w 130 2.718282 0
w -132 0.367879 0
w 132 2.718282 0
w -133 0.367879 0
w 133 2.718282 0
w -134 0.367879 0
w 134 2.718282 0
w -136 0.367879 0
w 136 2.718282 0
w -137 0.367879 0
w 137 2.718282 0
w -139 0.367879 0
w 139 2.718282 0
w -140 0.367879 0
w 140 2.718282 0
w -141 0.367879 0
w 141 2.718282 0
w -142 0.367879 0
w 142 2.718282 0
w -143 0.367879 0
w 143 2.718282 0
w -144 0.367879 0
w 144 2.718282 0
w -146 0.367879 0
w 146 2.718282 0
w -147 0.367879 0
w 147 2.718282 0
w -148 0.367879 0
w 148 2.718282 0
w -149 0.367879 0
w 149 2.718282 0
w -150 0.367879 0
w 150 2.718282 0
w -151 0.367879 0
w 151 2.718282 0
w -152 0.367879 0
w 152 2.718282 0
w -154 0.367879 0
w 154 2.718282 0
w -155 0.367879 0
w 155 2.718282 0
w -156 0.367879 0
w 156 2.718282 0
w -157 0.367879 0
w 157 2.718282 0
w -158 0.367879 0
w 158 2.718282 0
w -159 0.367879 0
w 159 2.718282 0
w -160 0.367879 0
w 160 2.718282 0
w -161 0.367879 0
w 161 2.718282 0
w -162 0.367879 0
w 162 2.718282 0
w -163 0.367879 0
w 163 2.718282 0
w -166 0.367879 0
w 166 2.718282 0
w -168 0.367879 0
w 168 2.718282 0
w -170 0.367879 0
w 170 2.718282 0
w -171 0.367879 0
w 171 2.718282 0
w -173 0.367879 0
w 173 2.718282 0
w -174 0.367879 0
w 174 2.718282 0
w -175 0.367879 0
w 175 2.718282 0
w -176 0.367879 0
w 176 2.718282 0
w -178 0.367879 0
w 178 2.718282 0
w -179 0.367879 0
w 179 2.718282 0
w -180 0.367879 0
w 180 2.718282 0
w -181 0.367879 0
w 181 2.718282 0
w -182 0.367879 0
w 182 2.718282 0
w -183 0.367879 0
w 183 2.718282 0
w -185 0.367879 0
w 185 2.718282 0
w -186 0.367879 0
w 186 2.718282 0
w -187 0.367879 0
w 187 2.718282 0
w -188 0.367879 0
w 188 2.718282 0
w -189 0.367879 0
w 189 2.718282 0
w -190 0.367879 0
w 190 2.718282 0
w -192 0.367879 0
w 192 2.718282 0
w -193 0.367879 0
w 193 2.718282 0
w -194 0.367879 0
w 194 2.718282 0
w -195 0.367879 0
w 195 2.718282 0
w -197 0.367879 0
w 197 2.718282 0
w -198 0.367879 0
w 198 2.718282 0
w -199 0.367879 0
w 199 2.718282 0
w -200 0.367879 0
w 200 2.718282 0
w -202 0.367879 0
w 202 2.718282 0
w -203 0.367879 0
w 203 2.718282 0
w -205 0.367879 0
w 205 2.718282 0
w -206 0.367879 0
w 206 2.718282 0
w -207 0.367879 0
w 207 2.718282 0
w -208 0.367879 0
w 208 2.718282 0
w -209 0.367879 0
w 209 2.718282 0
w -210 0.367879 0
w 210 2.718282 0
w -212 0.367879 0
w 212 2.718282 0
w -213 0.367879 0
w 213 2.718282 0
w -214 0.367879 0
w 214 2.718282 0
w -215 0.367879 0
w 215 2.718282 0
w -216 0.367879 0
w 216 2.718282 0
w -218 0.367879 0
w 218 2.718282 0
w -219 0.367879 0
w 219 2.718282 0
w -220 0.367879 0
w 220 2.718282 0
w -221 0.367879 0
w 221 2.718282 0
w -222 0.367879 0
w 222 2.718282 0
w -224 0.367879 0
w 224 2.718282 0
w -225 0.367879 0
w 225 2.718282 0
w -226 0.367879 0
w 226 2.718282 0
w -228 0.367879 0
w 228 2.718282 0
w -229 0.367879 0
w 229 2.718282 0
w -230 0.367879 0
w 230 2.718282 0
w -231 0.367879 0
w 231 2.718282 0
w -232 0.367879 0
w 232 2.718282 0
w -234 0.367879 0
w 234 2.718282 0
w -235 0.367879 0
w 235 2.718282 0
w -236 0.367879 0
w 236 2.718282 0
w -237 0.367879 0
w 237 2.718282 0
w -238 0.367879 0
w 238 2.718282 0
w -239 0.367879 0
w 239 2.718282 0
w -241 0.367879 0
w 241 2.718282 0
w -242 0.367879 0
w 242 2.718282 0
w -243 0.367879 0
w 243 2.718282 0
w -244 0.367879 0
w 244 2.718282 0
w -245 0.367879 0
w 245 2.718282 0
w -247 0.367879 0
w 247 2.718282 0
w -248 0.367879 0
w 248 2.718282 0
w -249 0.367879 0
w 249 2.718282 0
w -250 0.367879 0
w 250 2.718282 0
w -251 0.367879 0
w 251 2.718282 0
w -253 0.367879 0
w 253 2.718282 0
w -254 0.367879 0
w 254 2.718282 0
w -255 0.367879 0
w 255 2.718282 0
w -256 0.367879 0
w 256 2.718282 0
w -258 0.367879 0
w 258 2.718282 0
w -259 0.367879 0
w 259 2.718282 0
w -261 0.367879 0
w 261 2.718282 0
w -262 0.367879 0
w 262 2.718282 0
w -263 0.367879 0
w 263 2.718282 0
w -265 0.367879 0
w 265 2.718282 0
w -266 0.367879 0
w 266 2.718282 0
w -267 0.367879 0
w 267 2.718282 0
w -268 0.367879 0
w 268 2.718282 0
w -270 0.367879 0
w 270 2.718282 0
w -271 0.367879 0
w 271 2.718282 0
w -272 0.367879 0
w 272 2.718282 0
w -273 0.367879 0
w 273 2.718282 0
w -274 0.367879 0
w 274 2.718282 0
w -275 0.367879 0
w 275 2.718282 0
w -277 0.367879 0
w 277 2.718282 0
w -279 0.367879 0
w 279 2.718282 0
w -280 0.367879 0
w 280 2.718282 0
w -282 0.367879 0
w 282 2.718282 0
w -283 0.367879 0
w 283 2.718282 0
w -284 0.367879 0
w 284 2.718282 0
w -285 0.367879 0
w 285 2.718282 0
w -286 0.367879 0
w 286 2.718282 0
w -288 0.367879 0
w 288 2.718282 0
w -289 0.367879 0
w 289 2.718282 0
w -290 0.367879 0
w 290 2.718282 0
w -291 0.367879 0
w 291 2.718282 0
w -292 0.367879 0
w 292 2.718282 0
w -293 0.367879 0
w 293 2.718282 0
w -295 0.367879 0
w 295 2.718282 0
w -297 0.367879 0
w 297 2.718282 0
w -298 0.367879 0
w 298 2.718282 0
w -299 0.367879 0
w 299 2.718282 0
w -301 0.367879 0
w 301 2.718282 0
w -302 0.367879 0
w 302 2.718282 0
w -303 0.367879 0
w 303 2.718282 0
w -304 0.367879 0
w 304 2.718282 0
w -305 0.367879 0
w 305 2.718282 0
w -307 0.367879 0
w 307 2.718282 0
w -308 0.367879 0
w 308 2.718282 0
w -309 0.367879 0
w 309 2.718282 0
w -311 0.367879 0
w 311 2.718282 0
w -312 0.367879 0
w 312 2.718282 0
w -313 0.367879 0
w 313 2.718282 0
w -315 0.367879 0
w 315 2.718282 0
w -317 0.367879 0
w 317 2.718282 0
w -318 0.367879 0
w 318 2.718282 0
w -320 0.367879 0
w 320 2.718282 0
w -322 0.367879 0
w 322 2.718282 0
w -323 0.367879 0
w 323 2.718282 0
w -324 0.367879 0
w 324 2.718282 0
w -326 0.367879 0
w 326 2.718282 0
w -327 0.367879 0
w 327 2.718282 0
w -328 0.367879 0
w 328 2.718282 0
w -329 0.367879 0
w 329 2.718282 0
w -330 0.367879 0
w 330 2.718282 0
w -331 0.367879 0
w 331 2.718282 0
w -333 0.367879 0
w 333 2.718282 0
w -334 0.367879 0
w 334 2.718282 0
w -336 0.367879 0
w 336 2.718282 0
w -337 0.367879 0
w 337 2.718282 0
w -338 0.367879 0
w 338 2.718282 0
w -339 0.367879 0
w 339 2.718282 0
w -341 0.367879 0
w 341 2.718282 0
w -342 0.367879 0
w 342 2.718282 0
w -343 0.367879 0
w 343 2.718282 0
w -346 0.367879 0
w 346 2.718282 0
w -348 0.367879 0
w 348 2.718282 0
w -349 0.367879 0
w 349 2.718282 0
w -351 0.367879 0
w 351 2.718282 0
w -352 0.367879 0
w 352 2.718282 0
w -353 0.367879 0
w 353 2.718282 0
w -355 0.367879 0
w 355 2.718282 0
w -356 0.367879 0
w 356 2.718282 0
w -358 0.367879 0
w 358 2.718282 0
w -359 0.367879 0
w 359 2.718282 0
w -360 0.367879 0
w 360 2.718282 0
w -361 0.367879 0
w 361 2.718282 0
w -363 0.367879 0
w 363 2.718282 0
w -365 0.367879 0
w 365 2.718282 0
w -366 0.367879 0
w 366 2.718282 0
w -367 0.367879 0
w 367 2.718282 0
w -368 0.367879 0
w 368 2.718282 0
w -370 0.367879 0
w 370 2.718282 0
w -371 0.367879 0
w 371 2.718282 0
w -372 0.367879 0
w 372 2.718282 0
w -373 0.367879 0
w 373 2.718282 0
w -375 0.367879 0
w 375 2.718282 0
w -376 0.367879 0
w 376 2.718282 0
w -377 0.367879 0
w 377 2.718282 0
w -379 0.367879 0
w 379 2.718282 0
w -380 0.367879 0
w 380 2.718282 0
w -381 0.367879 0
w 381 2.718282 0
w -383 0.367879 0
w 383 2.718282 0
w -385 0.367879 0
w 385 2.718282 0
w -386 0.367879 0
w 386 2.718282 0
w -387 0.367879 0
w 387 2.718282 0
w -389 0.367879 0
w 389 2.718282 0
w -390 0.367879 0
w 390 2.718282 0
w -391 0.367879 0
w 391 2.718282 0
w -393 0.367879 0
w 393 2.718282 0
w -395 0.367879 0
w 395 2.718282 0
w -396 0.367879 0
w 396 2.718282 0
w -398 0.367879 0
w 398 2.718282 0
w -400 0.367879 0
w 400 2.718282 0
w -401 0.367879 0
w 401 2.718282 0
w -402 0.367879 0
w 402 2.718282 0
w -404 0.367879 0
w 404 2.718282 0
w -405 0.367879 0
w 405 2.718282 0
w -406 0.367879 0
w 406 2.718282 0
w -408 0.367879 0
w 408 2.718282 0
w -409 0.367879 0
w 409 2.718282 0
w -410 0.367879 0
w 410 2.718282 0
w -412 0.367879 0
w 412 2.718282 0
w -413 0.367879 0
w 413 2.718282 0
w -414 0.367879 0
w 414 2.718282 0
w -415 0.367879 0
w 415 2.718282 0
w -417 0.367879 0
w 417 2.718282 0
w -418 0.367879 0
w 418 2.718282 0
w -422 0.367879 0
w 422 2.718282 0
w -424 0.367879 0
w 424 2.718282 0
w -426 0.367879 0
w 426 2.718282 0
w -427 0.367879 0
w 427 2.718282 0
w -428 0.367879 0
w 428 2.718282 0
w -430 0.367879 0
w 430 2.718282 0
w -431 0.367879 0
w 431 2.718282 0
w -432 0.367879 0
w 432 2.718282 0
w -434 0.367879 0
w 434 2.718282 0
w -435 0.367879 0
w 435 2.718282 0
w -436 0.367879 0
w 436 2.718282 0
w -440 0.367879 0
w 440 2.718282 0
w -441 0.367879 0
w 441 2.718282 0
w -443 0.367879 0
w 443 2.718282 0
w -444 0.367879 0
w 444 2.718282 0
w -445 0.367879 0
w 445 2.718282 0
w -446 0.367879 0
w 446 2.718282 0
w -447 0.367879 0
w 447 2.718282 0
w -452 0.367879 0
w 452 2.718282 0
w -454 0.367879 0
w 454 2.718282 0
w -456 0.367879 0
w 456 2.718282 0
w -457 0.367879 0
w 457 2.718282 0
w -458 0.367879 0
w 458 2.718282 0
w -459 0.367879 0
w 459 2.718282 0
w -460 0.367879 0
w 460 2.718282 0
w -462 0.367879 0
w 462 2.718282 0
w -463 0.367879 0
w 463 2.718282 0
w -464 0.367879 0
w 464 2.718282 0
w -466 0.367879 0
w 466 2.718282 0
w -467 0.367879 0
w 467 2.718282 0
w -468 0.367879 0
w 468 2.718282 0
w -469 0.367879 0
w 469 2.718282 0
w -470 0.367879 0
w 470 2.718282 0
w -472 0.367879 0
w 472 2.718282 0
w -473 0.367879 0
w 473 2.718282 0
w -475 0.367879 0
w 475 2.718282 0
w -476 0.367879 0
w 476 2.718282 0
w -477 0.367879 0
w 477 2.718282 0
w -479 0.367879 0
w 479 2.718282 0
w -481 0.367879 0
w 481 2.718282 0
w -483 0.367879 0
w 483 2.718282 0
w -485 0.367879 0
w 485 2.718282 0
w -487 0.367879 0
w 487 2.718282 0
w -489 0.367879 0
w 489 2.718282 0
w -490 0.367879 0
w 490 2.718282 0
w -492 0.367879 0
w 492 2.718282 0
w -493 0.367879 0
w 493 2.718282 0
w -497 0.367879 0
w 497 2.718282 0
w -498 0.367879 0
w 498 2.718282 0
w -499 0.367879 0
w 499 2.718282 0
w -501 0.367879 0
w 501 2.718282 0
w -506 0.367879 0
w 506 2.718282 0
w -507 0.367879 0
w 507 2.718282 0
w -509 0.367879 0
w 509 2.718282 0
w -512 0.367879 0
w 512 2.718282 0
w -513 0.367879 0
w 513 2.718282 0
w -515 0.367879 0
w 515 2.718282 0
w -516 0.367879 0
w 516 2.718282 0
w -519 0.367879 0
w 519 2.718282 0
w -521 0.367879 0
w 521 2.718282 0
w -523 0.367879 0
w 523 2.718282 0
w -528 0.367879 0
w 528 2.718282 0
w -536 0.367879 0
w 536 2.718282 0
2 1 114 0
2 -1 -114 0
-2 1 -114 0
-2 -1 114 0
3 1 120 0
3 -1 -120 0
-3 1 -120 0
-3 -1 120 0
4 1 177 0
4 -1 -177 0
-4 1 -177 0
-4 -1 177 0
5 1 325 0
5 -1 -325 0
-5 1 -325 0
-5 -1 325 0
6 1 488 0
6 -1 -488 0
-6 1 -488 0
-6 -1 488 0
7 1 525 0
7 -1 -525 0
-7 1 -525 0
-7 -1 525 0
8 1 530 0
8 -1 -530 0
-8 1 -530 0
-8 -1 530 0
10 9 240 0
10 -9 -240 0
-10 9 -240 0
-10 -9 240 0
11 9 252 0
11 -9 -252 0
-11 9 -252 0
-11 -9 252 0
12 9 281 0
12 -9 -281 0
-12 9 -281 0
-12 -9 281 0
13 9 310 0
13 -9 -310 0
-13 9 -310 0
-13 -9 310 0
15 14 63 0
15 -14 -63 0
-15 14 -63 0
-15 -14 63 0
16 14 165 0
16 -14 -165 0
-16 14 -165 0
-16 -14 165 0
17 14 257 0
17 -14 -257 0
-17 14 -257 0
-17 -14 257 0
19 18 246 0
19 -18 -246 0
-19 18 -246 0
-19 -18 246 0
20 18 374 0
20 -18 -374 0
-20 18 -374 0
-20 -18 374 0
21 18 394 0
21 -18 -394 0
-21 18 -394 0
-21 -18 394 0
22 18 399 0
22 -18 -399 0
-22 18 -399 0
-22 -18 399 0
23 18 425 0
23 -18 -425 0
-23 18 -425 0
-23 -18 425 0
24 18 455 0
24 -18 -455 0
-24 18 -455 0
-24 -18 455 0
25 18 495 0
25 -18 -495 0
-25 18 -495 0
-25 -18 495 0
26 18 511 0
26 -18 -511 0
-26 18 -511 0
-26 -18 511 0
27 18 530 0
27 -18 -530 0
-27 18 -530 0
-27 -18 530 0
29 28 120 0
29 -28 -120 0
-29 28 -120 0
-29 -28 120 0
30 28 314 0
30 -28 -314 0
-30 28 -314 0
-30 -28 314 0
31 28 332 0
31 -28 -332 0
-31 28 -332 0
-31 -28 332 0
32 28 416 0
32 -28 -416 0
-32 28 -416 0
-32 -28 416 0
33 28 437 0
33 -28 -437 0
-33 28 -437 0
-33 -28 437 0
34 28 465 0
34 -28 -465 0
-34 28 -465 0
-34 -28 465 0
35 28 529 0
35 -28 -529 0
-35 28 -529 0
-35 -28 529 0
37 36 264 0
37 -36 -264 0
-37 36 -264 0
-37 -36 264 0
38 36 310 0
38 -36 -310 0
-38 36 -310 0
-38 -36 310 0
39 36 397 0
39 -36 -397 0
-39 36 -397 0
-39 -36 397 0
40 36 438 0
40 -36 -438 0
-40 36 -438 0
-40 -36 438 0
41 36 534 0
41 -36 -534 0
-41 36 -534 0
-41 -36 534 0
42 36 542 0
42 -36 -542 0
-42 36 -542 0
-42 -36 542 0
44 43 319 0
44 -43 -319 0
-44 43 -319 0
-44 -43 319 0
45 43 449 0
45 -43 -449 0
-45 43 -449 0
-45 -43 449 0
47 46 167 0
47 -46 -167 0
-47 46 -167 0
-47 -46 167 0
48 46 411 0
48 -46 -411 0
-48 46 -411 0
-48 -46 411 0
49 46 471 0
49 -46 -471 0
-49 46 -471 0
-49 -46 471 0
50 46 518 0
50 -46 -518 0
-50 46 -518 0
-50 -46 518 0
52 51 153 0
52 -51 -153 0
-52 51 -153 0
-52 -51 153 0
53 51 257 0
53 -51 -257 0
-53 51 -257 0
-53 -51 257 0
54 51 354 0
54 -51 -354 0
-54 51 -354 0
-54 -51 354 0
55 51 461 0
55 -51 -461 0
-55 51 -461 0
-55 -51 461 0
56 51 478 0
56 -51 -478 0
-56 51 -478 0
-56 -51 478 0
57 51 520 0
57 -51 -520 0
-57 51 -520 0
-57 -51 520 0
58 51 526 0
58 -51 -526 0
-58 51 -526 0
-58 -51 526 0
59 51 527 0
59 -51 -527 0
-59 51 -527 0
-59 -51 527 0
61 60 172 0
61 -60 -172 0
-61 60 -172 0
-61 -60 172 0
62 60 382 0
62 -60 -382 0
-62 60 -382 0
-62 -60 382 0
64 63 217 0
64 -63 -217 0
-64 63 -217 0
-64 -63 217 0
65 63 325 0
65 -63 -325 0
-65 63 -325 0
-65 -63 325 0
66 63 392 0
66 -63 -392 0
-66 63 -392 0
-66 -63 392 0
67 63 397 0
67 -63 -397 0
-67 63 -397 0
-67 -63 397 0
68 63 488 0
68 -63 -488 0
-68 63 -488 0
-68 -63 488 0
70 69 227 0
70 -69 -227 0
-70 69 -227 0
-70 -69 227 0
71 69 294 0
71 -69 -294 0
-71 69 -294 0
-71 -69 294 0
72 69 419 0
72 -69 -419 0
-72 69 -419 0
-72 -69 419 0
73 69 505 0
73 -69 -505 0
-73 69 -505 0
-73 -69 505 0
75 74 135 0
75 -74 -135 0
-75 74 -135 0
-75 -74 135 0
76 74 260 0
76 -74 -260 0
-76 74 -260 0
-76 -74 260 0
77 74 294 0
77 -74 -294 0
-77 74 -294 0
-77 -74 294 0
78 74 350 0
78 -74 -350 0
-78 74 -350 0
-78 -74 350 0
79 74 420 0
79 -74 -420 0
-79 74 -420 0
-79 -74 420 0
80 74 532 0
80 -74 -532 0
-80 74 -532 0
-80 -74 532 0
82 81 164 0
82 -81 -164 0
-82 81 -164 0
-82 -81 164 0
83 81 201 0
83 -81 -201 0
-83 81 -201 0
-83 -81 201 0
84 81 425 0
84 -81 -425 0
-84 81 -425 0
-84 -81 425 0
85 81 527 0
85 -81 -527 0
-85 81 -527 0
-85 -81 527 0
86 81 530 0
86 -81 -530 0
-86 81 -530 0
-86 -81 530 0
88 87 177 0
88 -87 -177 0
-88 87 -177 0
-88 -87 177 0
89 87 354 0
89 -87 -354 0
-89 87 -354 0
-89 -87 354 0
92 91 103 0
92 -91 -103 0
-92 91 -103 0
-92 -91 103 0
93 91 260 0
93 -91 -260 0
-93 91 -260 0
-93 -91 260 0
94 91 316 0
94 -91 -316 0
-94 91 -316 0
-94 -91 316 0
95 91 332 0
95 -91 -332 0
-95 91 -332 0
-95 -91 332 0
96 91 369 0
96 -91 -369 0
-96 91 -369 0
-96 -91 369 0
97 91 448 0
97 -91 -448 0
-97 91 -448 0
-97 -91 448 0
98 91 505 0
98 -91 -505 0
-98 91 -505 0
-98 -91 505 0
99 91 526 0
99 -91 -526 0
-99 91 -526 0
-99 -91 526 0
100 91 530 0
100 -91 -530 0
-100 91 -530 0
-100 -91 530 0
101 91 531 0
101 -91 -531 0
-101 91 -531 0
-101 -91 531 0
102 91 535 0
102 -91 -535 0
-102 91 -535 0
-102 -91 535 0
104 103 217 0
104 -103 -217 0
-104 103 -217 0
-104 -103 217 0
105 103 233 0
105 -103 -233 0
-105 103 -233 0
-105 -103 233 0
106 103 260 0
106 -103 -260 0
-106 103 -260 0
-106 -103 260 0
107 103 350 0
107 -103 -350 0
-107 103 -350 0
-107 -103 350 0
108 103 480 0
108 -103 -480 0
-108 103 -480 0
-108 -103 480 0
109 103 505 0
109 -103 -505 0
-109 103 -505 0
-109 -103 505 0
110 103 538 0
110 -103 -538 0
-110 103 -538 0
-110 -103 538 0
112 111 388 0
112 -111 -388 0
-112 111 -388 0
-112 -111 388 0
113 111 484 0
113 -111 -484 0
-113 111 -484 0
-113 -111 484 0
115 114 172 0
115 -114 -172 0
-115 114 -172 0
-115 -114 172 0
116 114 260 0
116 -114 -260 0
-116 114 -260 0
-116 -114 260 0
117 114 335 0
117 -114 -335 0
-117 114 -335 0
-117 -114 335 0
118 114 411 0
118 -114 -411 0
-118 114 -411 0
-118 -114 411 0
119 114 450 0
119 -114 -450 0
-119 114 -450 0
-119 -114 450 0
121 120 397 0
121 -120 -397 0
-121 120 -397 0
-121 -120 397 0
122 120 455 0
122 -120 -455 0
-122 120 -455 0
-122 -120 455 0
123 120 474 0
123 -120 -474 0
-123 120 -474 0
-123 -120 474 0
124 120 508 0
124 -120 -508 0
-124 120 -508 0
-124 -120 508 0
125 120 526 0
125 -120 -526 0
-125 120 -526 0
-125 -120 526 0
127 126 204 0
127 -126 -204 0
-127 126 -204 0
-127 -126 204 0
128 126 455 0
128 -126 -455 0
-128 126 -455 0
-128 -126 455 0
129 126 482 0
129 -126 -482 0
-129 126 -482 0
-129 -126 482 0
130 126 518 0
130 -126 -518 0
-130 126 -518 0
-130 -126 518 0
132 131 296 0
132 -131 -296 0
-132 131 -296 0
-132 -131 296 0
133 131 407 0
133 -131 -407 0
-133 131 -407 0
-133 -131 407 0
134 131 525 0
134 -131 -525 0
-134 131 -525 0
-134 -131 525 0
136 135 252 0
136 -135 -252 0
-136 135 -252 0
-136 -135 252 0
137 135 354 0
137 -135 -354 0
-137 135 -354 0
-137 -135 354 0
139 138 184 0
139 -138 -184 0
-139 138 -184 0
-139 -138 184 0
140 138 217 0
140 -138 -217 0
-140 138 -217 0
-140 -138 217 0
141 138 264 0
141 -138 -264 0
-141 138 -264 0
-141 -138 264 0
142 138 403 0
142 -138 -403 0
-142 138 -403 0
-142 -138 403 0
143 138 439 0
143 -138 -439 0
-143 138 -439 0
-143 -138 439 0
144 138 520 0
144 -138 -520 0
-144 138 -520 0
-144 -138 520 0
146 145 364 0
146 -145 -364 0
-146 145 -364 0
-146 -145 364 0
147 145 374 0
147 -145 -374 0
-147 145 -374 0
-147 -145 374 0
148 145 429 0
148 -145 -429 0
-148 145 -429 0
-148 -145 429 0
149 145 453 0
149 -145 -453 0
-149 145 -453 0
-149 -145 453 0
150 145 474 0
150 -145 -474 0
-150 145 -474 0
-150 -145 474 0
151 145 496 0
151 -145 -496 0
-151 145 -496 0
-151 -145 496 0
152 145 534 0
152 -145 -534 0
-152 145 -534 0
-152 -145 534 0
154 153 201 0
154 -153 -201 0
-154 153 -201 0
-154 -153 201 0
155 153 223 0
155 -153 -223 0
-155 153 -223 0
-155 -153 223 0
156 153 294 0
156 -153 -294 0
-156 153 -294 0
-156 -153 294 0
157 153 345 0
157 -153 -345 0
-157 153 -345 0
-157 -153 345 0
158 153 437 0
158 -153 -437 0
-158 153 -437 0
-158 -153 437 0
159 153 453 0
159 -153 -453 0
-159 153 -453 0
-159 -153 453 0
160 153 461 0
160 -153 -461 0
-160 153 -461 0
-160 -153 461 0
161 153 465 0
161 -153 -465 0
-161 153 -465 0
-161 -153 465 0
162 153 522 0
162 -153 -522 0
-162 153 -522 0
-162 -153 522 0
163 153 527 0
163 -153 -527 0
-163 153 -527 0
-163 -153 527 0
166 165 300 0
166 -165 -300 0
-166 165 -300 0
-166 -165 300 0
168 167 227 0
168 -167 -227 0
-168 167 -227 0
-168 -167 227 0
170 169 451 0
170 -169 -451 0
-170 169 -451 0
-170 -169 451 0
171 169 471 0
171 -169 -471 0
-171 169 -471 0
-171 -169 471 0
173 172 276 0
173 -172 -276 0
-173 172 -276 0
-173 -172 276 0
174 172 350 0
174 -172 -350 0
-174 172 -350 0
-174 -172 350 0
175 172 357 0
175 -172 -357 0
-175 172 -357 0
-175 -172 357 0
176 172 419 0
176 -172 -419 0
-176 172 -419 0
-176 -172 419 0
178 177 196 0
178 -177 -196 0
-178 177 -196 0
-178 -177 196 0
179 177 310 0
179 -177 -310 0
-179 177 -310 0
-179 -177 310 0
180 177 325 0
180 -177 -325 0
-180 177 -325 0
-180 -177 325 0
181 177 347 0
181 -177 -347 0
-181 177 -347 0
-181 -177 347 0
182 177 411 0
182 -177 -411 0
-182 177 -411 0
-182 -177 411 0
183 177 531 0
183 -177 -531 0
-183 177 -531 0
-183 -177 531 0
185 184 319 0
185 -184 -319 0
-185 184 -319 0
-185 -184 319 0
186 184 325 0
186 -184 -325 0
-186 184 -325 0
-186 -184 325 0
187 184 344 0
187 -184 -344 0
-187 184 -344 0
-187 -184 344 0
188 184 494 0
188 -184 -494 0
-188 184 -494 0
-188 -184 494 0
189 184 508 0
189 -184 -508 0
-189 184 -508 0
-189 -184 508 0
190 184 524 0
190 -184 -524 0
-190 184 -524 0
-190 -184 524 0
192 191 281 0
192 -191 -281 0
-192 191 -281 0
-192 -191 281 0
193 191 325 0
193 -191 -325 0
-193 191 -325 0
-193 -191 325 0
194 191 455 0
194 -191 -455 0
-194 191 -455 0
-194 -191 455 0
195 191 486 0
195 -191 -486 0
-195 191 -486 0
-195 -191 486 0
197 196 332 0
197 -196 -332 0
-197 196 -332 0
-197 -196 332 0
198 196 480 0
198 -196 -480 0
-198 196 -480 0
-198 -196 480 0
199 196 525 0
199 -196 -525 0
-199 196 -525 0
-199 -196 525 0
200 196 529 0
200 -196 -529 0
-200 196 -529 0
-200 -196 529 0
202 201 240 0
202 -201 -240 0
-202 201 -240 0
-202 -201 240 0
203 201 488 0
203 -201 -488 0
-203 201 -488 0
-203 -201 488 0
205 204 246 0
205 -204 -246 0
-205 204 -246 0
-205 -204 246 0
206 204 296 0
206 -204 -296 0
-206 204 -296 0
-206 -204 296 0
207 204 362 0
207 -204 -362 0
-207 204 -362 0
-207 -204 362 0
208 204 461 0
208 -204 -461 0
-208 204 -461 0
-208 -204 461 0
209 204 514 0
209 -204 -514 0
-209 204 -514 0
-209 -204 514 0
210 204 526 0
210 -204 -526 0
-210 204 -526 0
-210 -204 526 0
212 211 281 0
212 -211 -281 0
-212 211 -281 0
-212 -211 281 0
213 211 350 0
213 -211 -350 0
-213 211 -350 0
-213 -211 350 0
214 211 374 0
214 -211 -374 0
-214 211 -374 0
-214 -211 374 0
215 211 425 0
215 -211 -425 0
-215 211 -425 0
-215 -211 425 0
216 211 480 0
216 -211 -480 0
-216 211 -480 0
-216 -211 480 0
218 217 281 0
218 -217 -281 0
-218 217 -281 0
-218 -217 281 0
219 217 316 0
219 -217 -316 0
-219 217 -316 0
-219 -217 316 0
220 217 345 0
220 -217 -345 0
-220 217 -345 0
-220 -217 345 0
221 217 419 0
221 -217 -419 0
-221 217 -419 0
-221 -217 419 0
222 217 484 0
222 -217 -484 0
-222 217 -484 0
-222 -217 484 0
224 223 276 0
224 -223 -276 0
-224 223 -276 0
-224 -223 276 0
225 223 450 0
225 -223 -450 0
-225 223 -450 0
-225 -223 450 0
226 223 500 0
226 -223 -500 0
-226 223 -500 0
-226 -223 500 0
228 227 450 0
228 -227 -450 0
-228 227 -450 0
-228 -227 450 0
229 227 504 0
229 -227 -504 0
-229 227 -504 0
-229 -227 504 0
230 227 511 0
230 -227 -511 0
-230 227 -511 0
-230 -227 511 0
231 227 526 0
231 -227 -526 0
-231 227 -526 0
-231 -227 526 0
232 227 542 0
232 -227 -542 0
-232 227 -542 0
-232 -227 542 0
234 233 257 0
234 -233 -257 0
-234 233 -257 0
-234 -233 257 0
235 233 264 0
235 -233 -264 0
-235 233 -264 0
-235 -233 264 0
236 233 276 0
236 -233 -276 0
-236 233 -276 0
-236 -233 276 0
237 233 294 0
237 -233 -294 0
-237 233 -294 0
-237 -233 294 0
238 233 378 0
238 -233 -378 0
-238 233 -378 0
-238 -233 378 0
239 233 461 0
239 -233 -461 0
-239 233 -461 0
-239 -233 461 0
241 240 340 0
241 -240 -340 0
-241 240 -340 0
-241 -240 340 0
242 240 399 0
242 -240 -399 0
-242 240 -399 0
-242 -240 399 0
243 240 421 0
243 -240 -421 0
-243 240 -421 0
-243 -240 421 0
244 240 465 0
244 -240 -465 0
-244 240 -465 0
-244 -240 465 0
245 240 531 0
245 -240 -531 0
-245 240 -531 0
-245 -240 531 0
247 246 394 0
247 -246 -394 0
-247 246 -394 0
-247 -246 394 0
248 246 482 0
248 -246 -482 0
-248 246 -482 0
-248 -246 482 0
249 246 524 0
249 -246 -524 0
-249 246 -524 0
-249 -246 524 0
250 246 539 0
250 -246 -539 0
-250 246 -539 0
-250 -246 539 0
251 246 541 0
251 -246 -541 0
-251 246 -541 0
-251 -246 541 0
253 252 310 0
253 -252 -310 0
-253 252 -310 0
-253 -252 310 0
254 252 369 0
254 -252 -369 0
-254 252 -369 0
-254 -252 369 0
255 252 505 0
255 -252 -505 0
-255 252 -505 0
-255 -252 505 0
256 252 542 0
256 -252 -542 0
-256 252 -542 0
-256 -252 542 0
258 257 482 0
258 -257 -482 0
-258 257 -482 0
-258 -257 482 0
259 257 502 0
259 -257 -502 0
-259 257 -502 0
-259 -257 502 0
261 260 350 0
261 -260 -350 0
-261 260 -350 0
-261 -260 350 0
262 260 354 0
262 -260 -354 0
-262 260 -354 0
-262 -260 354 0
263 260 453 0
263 -260 -453 0
-263 260 -453 0
-263 -260 453 0
265 264 332 0
265 -264 -332 0
-265 264 -332 0
-265 -264 332 0
266 264 518 0
266 -264 -518 0
-266 264 -518 0
-266 -264 518 0
267 264 522 0
267 -264 -522 0
-267 264 -522 0
-267 -264 522 0
268 264 534 0
268 -264 -534 0
-268 264 -534 0
-268 -264 534 0
270 269 296 0
270 -269 -296 0
-270 269 -296 0
-270 -269 296 0
271 269 350 0
271 -269 -350 0
-271 269 -350 0
-271 -269 350 0
272 269 438 0
272 -269 -438 0
-272 269 -438 0
-272 -269 438 0
273 269 453 0
273 -269 -453 0
-273 269 -453 0
-273 -269 453 0
274 269 517 0
274 -269 -517 0
-274 269 -517 0
-274 -269 517 0
275 269 542 0
275 -269 -542 0
-275 269 -542 0
-275 -269 542 0
277 276 534 0
277 -276 -534 0
-277 276 -534 0
-277 -276 534 0
279 278 453 0
279 -278 -453 0
-279 278 -453 0
-279 -278 453 0
280 278 537 0
280 -278 -537 0
-280 278 -537 0
-280 -278 537 0
282 281 287 0
282 -281 -287 0
-282 281 -287 0
-282 -281 287 0
283 281 310 0
283 -281 -310 0
-283 281 -310 0
-283 -281 310 0
284 281 319 0
284 -281 -319 0
-284 281 -319 0
-284 -281 319 0
285 281 382 0
285 -281 -382 0
-285 281 -382 0
-285 -281 382 0
286 281 461 0
286 -281 -461 0
-286 281 -461 0
-286 -281 461 0
288 287 354 0
288 -287 -354 0
-288 287 -354 0
-288 -287 354 0
289 287 362 0
289 -287 -362 0
-289 287 -362 0
-289 -287 362 0
290 287 437 0
290 -287 -437 0
-290 287 -437 0
-290 -287 437 0
291 287 480 0
291 -287 -480 0
-291 287 -480 0
-291 -287 480 0
292 287 494 0
292 -287 -494 0
-292 287 -494 0
-292 -287 494 0
293 287 511 0
293 -287 -511 0
-293 287 -511 0
-293 -287 511 0
295 294 461 0
295 -294 -461 0
-295 294 -461 0
-295 -294 461 0
297 296 392 0
297 -296 -392 0
-297 296 -392 0
-297 -296 392 0
298 296 439 0
298 -296 -439 0
-298 296 -439 0
-298 -296 439 0
299 296 532 0
299 -296 -532 0
-299 296 -532 0
-299 -296 532 0
301 300 344 0
301 -300 -344 0
-301 300 -344 0
-301 -300 344 0
302 300 433 0
302 -300 -433 0
-302 300 -433 0
-302 -300 433 0
303 300 480 0
303 -300 -480 0
-303 300 -480 0
-303 -300 480 0
304 300 491 0
304 -300 -491 0
-304 300 -491 0
-304 -300 491 0
305 300 525 0
305 -300 -525 0
-305 300 -525 0
-305 -300 525 0
307 306 345 0
307 -306 -345 0
-307 306 -345 0
-307 -306 345 0
308 306 502 0
308 -306 -502 0
-308 306 -502 0
-308 -306 502 0
309 306 503 0
309 -306 -503 0
-309 306 -503 0
-309 -306 503 0
311 310 503 0
311 -310 -503 0
-311 310 -503 0
-311 -310 503 0
312 310 526 0
312 -310 -526 0
-312 310 -526 0
-312 -310 526 0
313 310 529 0
313 -310 -529 0
-313 310 -529 0
-313 -310 529 0
315 314 421 0
315 -314 -421 0
-315 314 -421 0
-315 -314 421 0
317 316 511 0
317 -316 -511 0
-317 316 -511 0
-317 -316 511 0
318 316 530 0
318 -316 -530 0
-318 316 -530 0
-318 -316 530 0
320 319 482 0
320 -319 -482 0
-320 319 -482 0
-320 -319 482 0
322 321 332 0
322 -321 -332 0
-322 321 -332 0
-322 -321 332 0
323 321 482 0
323 -321 -482 0
-323 321 -482 0
-323 -321 482 0
324 321 517 0
324 -321 -517 0
-324 321 -517 0
-324 -321 517 0
326 325 394 0
326 -325 -394 0
-326 325 -394 0
-326 -325 394 0
327 325 495 0
327 -325 -495 0
-327 325 -495 0
-327 -325 495 0
328 325 503 0
328 -325 -503 0
-328 325 -503 0
-328 -325 503 0
329 325 529 0
329 -325 -529 0
-329 325 -529 0
-329 -325 529 0
330 325 535 0
330 -325 -535 0
-330 325 -535 0
-330 -325 535 0
331 325 539 0
331 -325 -539 0
-331 325 -539 0
-331 -325 539 0
333 332 350 0
333 -332 -350 0
-333 332 -350 0
-333 -332 350 0
334 332 541 0
334 -332 -541 0
-334 332 -541 0
-334 -332 541 0
336 335 399 0
336 -335 -399 0
-336 335 -399 0
-336 -335 399 0
337 335 439 0
337 -335 -439 0
-337 335 -439 0
-337 -335 439 0
338 335 503 0
338 -335 -503 0
-338 335 -503 0
-338 -335 503 0
339 335 510 0
339 -335 -510 0
-339 335 -510 0
-339 -335 510 0
341 340 362 0
341 -340 -362 0
-341 340 -362 0
-341 -340 362 0
342 340 420 0
342 -340 -420 0
-342 340 -420 0
-342 -340 420 0
343 340 482 0
343 -340 -482 0
-343 340 -482 0
-343 -340 482 0
346 345 510 0
346 -345 -510 0
-346 345 -510 0
-346 -345 510 0
348 347 354 0
348 -347 -354 0
-348 347 -354 0
-348 -347 354 0
349 347 539 0
349 -347 -539 0
-349 347 -539 0
-349 -347 539 0
351 350 384 0
351 -350 -384 0
-351 350 -384 0
-351 -350 384 0
352 350 525 0
352 -350 -525 0
-352 350 -525 0
-352 -350 525 0
353 350 542 0
353 -350 -542 0
-353 350 -542 0
-353 -350 542 0
355 354 416 0
355 -354 -416 0
-355 354 -416 0
-355 -354 416 0
356 354 526 0
356 -354 -526 0
-356 354 -526 0
-356 -354 526 0
358 357 394 0
358 -357 -394 0
-358 357 -394 0
-358 -357 394 0
359 357 425 0
359 -357 -425 0
-359 357 -425 0
-359 -357 425 0
360 357 450 0
360 -357 -450 0
-360 357 -450 0
-360 -357 450 0
361 357 480 0
361 -357 -480 0
-361 357 -480 0
-361 -357 480 0
363 362 369 0
363 -362 -369 0
-363 362 -369 0
-363 -362 369 0
365 364 423 0
365 -364 -423 0
-365 364 -423 0
-365 -364 423 0
366 364 482 0
366 -364 -482 0
-366 364 -482 0
-366 -364 482 0
367 364 502 0
367 -364 -502 0
-367 364 -502 0
-367 -364 502 0
368 364 526 0
368 -364 -526 0
-368 364 -526 0
-368 -364 526 0
370 369 429 0
370 -369 -429 0
-370 369 -429 0
-370 -369 429 0
371 369 455 0
371 -369 -455 0
-371 369 -455 0
-371 -369 455 0
372 369 495 0
372 -369 -495 0
-372 369 -495 0
-372 -369 495 0
373 369 505 0
373 -369 -505 0
-373 369 -505 0
-373 -369 505 0
375 374 416 0
375 -374 -416 0
-375 374 -416 0
-375 -374 416 0
376 374 451 0
376 -374 -451 0
-376 374 -451 0
-376 -374 451 0
377 374 496 0
377 -374 -496 0
-377 374 -496 0
-377 -374 496 0
379 378 438 0
379 -378 -438 0
-379 378 -438 0
-379 -378 438 0
380 378 474 0
380 -378 -474 0
-380 378 -474 0
-380 -378 474 0
381 378 518 0
381 -378 -518 0
-381 378 -518 0
-381 -378 518 0
383 382 486 0
383 -382 -486 0
-383 382 -486 0
-383 -382 486 0
385 384 420 0
385 -384 -420 0
-385 384 -420 0
-385 -384 420 0
386 384 448 0
386 -384 -448 0
-386 384 -448 0
-386 -384 448 0
387 384 538 0
387 -384 -538 0
-387 384 -538 0
-387 -384 538 0
389 388 437 0
389 -388 -437 0
-389 388 -437 0
-389 -388 437 0
390 388 510 0
390 -388 -510 0
-390 388 -510 0
-390 -388 510 0
391 388 540 0
391 -388 -540 0
-391 388 -540 0
-391 -388 540 0
393 392 531 0
393 -392 -531 0
-393 392 -531 0
-393 -392 531 0
395 394 478 0
395 -394 -478 0
-395 394 -478 0
-395 -394 478 0
396 394 530 0
396 -394 -530 0
-396 394 -530 0
-396 -394 530 0
398 397 531 0
398 -397 -531 0
-398 397 -531 0
-398 -397 531 0
400 399 449 0
400 -399 -449 0
-400 399 -449 0
-400 -399 449 0
401 399 503 0
401 -399 -503 0
-401 399 -503 0
-401 -399 503 0
402 399 532 0
402 -399 -532 0
-402 399 -532 0
-402 -399 532 0
404 403 471 0
404 -403 -471 0
-404 403 -471 0
-404 -403 471 0
405 403 504 0
405 -403 -504 0
-405 403 -504 0
-405 -403 504 0
406 403 529 0
406 -403 -529 0
-406 403 -529 0
-406 -403 529 0
408 407 429 0
408 -407 -429 0
-408 407 -429 0
-408 -407 429 0
409 407 455 0
409 -407 -455 0
-409 407 -455 0
-409 -407 455 0
410 407 504 0
410 -407 -504 0
-410 407 -504 0
-410 -407 504 0
412 411 474 0
412 -411 -474 0
-412 411 -474 0
-412 -411 474 0
413 411 486 0
413 -411 -486 0
-413 411 -486 0
-413 -411 486 0
414 411 524 0
414 -411 -524 0
-414 411 -524 0
-414 -411 524 0
415 411 534 0
415 -411 -534 0
-415 411 -534 0
-415 -411 534 0
417 416 471 0
417 -416 -471 0
-417 416 -471 0
-417 -416 471 0
418 416 517 0
418 -416 -517 0
-418 416 -517 0
-418 -416 517 0
422 421 504 0
422 -421 -504 0
-422 421 -504 0
-422 -421 504 0
424 423 520 0
424 -423 -520 0
-424 423 -520 0
-424 -423 520 0
426 425 488 0
426 -425 -488 0
-426 425 -488 0
-426 -425 488 0
427 425 527 0
427 -425 -527 0
-427 425 -527 0
-427 -425 527 0
428 425 534 0
428 -425 -534 0
-428 425 -534 0
-428 -425 534 0
430 429 465 0
430 -429 -465 0
-430 429 -465 0
-430 -429 465 0
431 429 505 0
431 -429 -505 0
-431 429 -505 0
-431 -429 505 0
432 429 527 0
432 -429 -527 0
-432 429 -527 0
-432 -429 527 0
434 433 442 0
434 -433 -442 0
-434 433 -442 0
-434 -433 442 0
435 433 451 0
435 -433 -451 0
-435 433 -451 0
-435 -433 451 0
436 433 510 0
436 -433 -510 0
-436 433 -510 0
-436 -433 510 0
440 439 453 0
440 -439 -453 0
-440 439 -453 0
-440 -439 453 0
441 439 502 0
441 -439 -502 0
-441 439 -502 0
-441 -439 502 0
443 442 471 0
443 -442 -471 0
-443 442 -471 0
-443 -442 471 0
444 442 486 0
444 -442 -486 0
-444 442 -486 0
-444 -442 486 0
445 442 511 0
445 -442 -511 0
-445 442 -511 0
-445 -442 511 0
446 442 522 0
446 -442 -522 0
-446 442 -522 0
-446 -442 522 0
447 442 530 0
447 -442 -530 0
-447 442 -530 0
-447 -442 530 0
452 451 518 0
452 -451 -518 0
-452 451 -518 0
-452 -451 518 0
454 453 494 0
454 -453 -494 0
-454 453 -494 0
-454 -453 494 0
456 455 478 0
456 -455 -478 0
-456 455 -478 0
-456 -455 478 0
457 455 482 0
457 -455 -482 0
-457 455 -482 0
-457 -455 482 0
458 455 495 0
458 -455 -495 0
-458 455 -495 0
-458 -455 495 0
459 455 520 0
459 -455 -520 0
-459 455 -520 0
-459 -455 520 0
460 455 522 0
460 -455 -522 0
-460 455 -522 0
-460 -455 522 0
462 461 478 0
462 -461 -478 0
-462 461 -478 0
-462 -461 478 0
463 461 520 0
463 -461 -520 0
-463 461 -520 0
-463 -461 520 0
464 461 540 0
464 -461 -540 0
-464 461 -540 0
-464 -461 540 0
466 465 505 0
466 -465 -505 0
-466 465 -505 0
-466 -465 505 0
467 465 520 0
467 -465 -520 0
-467 465 -520 0
-467 -465 520 0
468 465 526 0
468 -465 -526 0
-468 465 -526 0
-468 -465 526 0
469 465 531 0
469 -465 -531 0
-469 465 -531 0
-469 -465 531 0
470 465 534 0
470 -465 -534 0
-470 465 -534 0
-470 -465 534 0
472 471 496 0
472 -471 -496 0
-472 471 -496 0
-472 -471 496 0
473 471 532 0
473 -471 -532 0
-473 471 -532 0
-473 -471 532 0
475 474 495 0
475 -474 -495 0
-475 474 -495 0
-475 -474 495 0
476 474 514 0
476 -474 -514 0
-476 474 -514 0
-476 -474 514 0
477 474 542 0
477 -474 -542 0
-477 474 -542 0
-477 -474 542 0
479 478 500 0
479 -478 -500 0
-479 478 -500 0
-479 -478 500 0
481 480 488 0
481 -480 -488 0
-481 480 -488 0
-481 -480 488 0
483 482 538 0
483 -482 -538 0
-483 482 -538 0
-483 -482 538 0
485 484 535 0
485 -484 -535 0
-485 484 -535 0
-485 -484 535 0
487 486 520 0
487 -486 -520 0
-487 486 -520 0
-487 -486 520 0
489 488 511 0
489 -488 -511 0
-489 488 -511 0
-489 -488 511 0
490 488 517 0
490 -488 -517 0
-490 488 -517 0
-490 -488 517 0
492 491 520 0
492 -491 -520 0
-492 491 -520 0
-492 -491 520 0
493 491 522 0
493 -491 -522 0
-493 491 -522 0
-493 -491 522 0
497 496 510 0
497 -496 -510 0
-497 496 -510 0
-497 -496 510 0
498 496 511 0
498 -496 -511 0
-498 496 -511 0
-498 -496 511 0
499 496 539 0
499 -496 -539 0
-499 496 -539 0
-499 -496 539 0
501 500 527 0
501 -500 -527 0
-501 500 -527 0
-501 -500 527 0
506 505 522 0
506 -505 -522 0
-506 505 -522 0
-506 -505 522 0
507 505 529 0
507 -505 -529 0
-507 505 -529 0
-507 -505 529 0
509 508 522 0
509 -508 -522 0
-509 508 -522 0
-509 -508 522 0
512 511 532 0
512 -511 -532 0
-512 511 -532 0
-512 -511 532 0
513 511 535 0
513 -511 -535 0
-513 511 -535 0
-513 -511 535 0
515 514 525 0
515 -514 -525 0
-515 514 -525 0
-515 -514 525 0
516 514 542 0
516 -514 -542 0
-516 514 -542 0
-516 -514 542 0
519 518 541 0
519 -518 -541 0
-519 518 -541 0
-519 -518 541 0
521 520 538 0
521 -520 -538 0
-521 520 -538 0
-521 -520 538 0
523 522 533 0
523 -522 -533 0
-523 522 -533 0
-523 -522 533 0
528 527 530 0
528 -527 -530 0
-528 527 -530 0
-528 -527 530 0
536 535 539 0
536 -535 -539 0
-536 535 -539 0
-536 -535 539 0
